c random cnf
p cnf 50 50
-27 -47 0
14 -43 0
-14 16 0
27 39 0
1 -42 0
-13 -17 0
38 -49 0
24 -47 0
16 -22 0
-21 -23 0
7 33 0
3 17 0
11 -20 0
36 45 0
7 -14 0
-7 43 0
-3 -12 0
21 27 0
-23 -49 0
-2 -30 0
-18 50 0
-16 29 0
-32 -44 0
-17 41 0
13 26 0
2 -34 0
14 -36 0
1 -50 0
14 -17 0
-42 -44 0
-28 -43 0
-17 22 0
-3 34 0
-5 7 0
5 -13 0
-31 -35 0
-21 30 0
-1 -9 0
7 30 0
18 -49 0
-17 45 0
45 46 0
-4 48 0
-11 -20 0
27 45 0
-7 -45 0
31 46 0
39 -49 0
26 -29 0
25 -33 0
